750
750
524
524
524
523
522
521
520
518
518
518
516
516
516
515
514
513
513
512
512
512
511
511
511
511
511
510
508
508
508
508
508
507
507
507
505
505
504
504
503
503
501
501
500
500
500
500
499
499
499
498
497
496
496
495
495
494
494
494
493
493
493
492
492
492
491
490
490
490
490
489
488
488
488
486
486
486
484
481
481
480
478
476
476
475
475
474
474
473
473
473
471
471
470
470
469
468
468
468
467
467
467
466
465
465
465
464
461
461
460
459
459
459
458
458
457
457
457
456
456
456
455
455
455
455
454
454
454
454
453
452
452
451
451
451
450
450
450
450
449
449
449
449
448
448
448
448
448
447
447
446
445
445
444
444
444
443
443
442
441
440
440
440
439
439
439
438
438
438
438
437
437
437
436
436
435
435
434
433
433
433
433
433
432
432
432
431
431
430
430
429
428
426
424
424
424
423
423
423
423
422
421
421
420
420
419
418
418
418
418
418
418
417
415
415
414
414
413
413
412
412
412
411
410
410
409
409
408
407
407
406
406
406
406
405
404
404
404
404
403
403
402
401
400
400
400
399
399
398
398
398
398
394
394
392
392
391
390
390
390
390
389
387
386
385
385
385
385
384
383
383
383
382
382
381
381
380
379
379
378
378
375
375
375
375
374
374
373
373
373
372
372
372
372
372
371
371
371
370
369
369
369
368
368
368
367
367
367
367
367
366
366
366
366
365
365
365
364
364
364
364
364
364
363
363
363
362
361
361
361
360
359
359
359
359
356
355
355
355
354
354
353
353
352
351
351
351
351
350
349
348
348
348
347
347
347
347
346
346
345
344
344
343
341
340
340
339
339
339
337
337
336
335
335
334
334
334
333
332
332
331
330
329
329
329
328
328
327
327
326
326
325
325
325
324
324
323
323
322
320
320
320
320
319
319
319
319
318
317
317
317
316
315
315
315
315
315
315
314
313
313
313
313
313
312
312
312
311
311
309
309
308
307
307
306
306
306
306
305
305
305
304
303
303
303
302
302
300
299
298
297
296
296
295
295
294
294
293
293
293
293
292
292
291
291
291
290
290
289
288
288
287
286
286
285
285
285
284
284
283
282
282
282
282
281
281
281
280
279
279
279
279
277
277
277
275
275
275
275
275
273
273
273
271
270
270
269
269
269
269
269
269
268
267
267
267
266
266
265
265
264
264
264
263
263
262
262
262
262
262
261
260
259
259
258
257
257
257
256
256
256
255
255
251
251
251
250
249
249
249
248
248
247
247
247
245
244
244
243
243
242
242
242
241
241
241
240
240
240
239
238
238
237
237
237
236
236
236
234
234
234
234
233
233
232
231
231
230
229
229
229
228
228
227
227
227
227
227
226
226
226
225
224
224
224
223
223
223
223
223
222
222
221
221
221
221
220
220
219
218
218
217
216
216
216
215
215
215
215
214
214
214
213
213
212
211
211
211
210
210
210
210
210
209
209
208
207
207
205
204
204
203
203
202
201
200
200
199
199
198
198
198
198
197
196
196
195
195
194
194
193
193
193
192
192
190
189
189
188
187
186
185
185
183
182
182
181
181
181
180
180
180
178
176
176
175
175
175
175
175
175
175
174
174
174
174
174
173
173
173
173
171
171
171
170
170
169
169
169
169
168
168
166
166
165
164
164
163
162
161
161
161
160
160
158
157
156
156
156
156
156
155
155
154
154
153
153
150
150
150
150
